proyfinal/src/viki/013/experimentInOfficeAgust.take6.output/4c355787-b4a7-47c9-9e63-b66a0fa105fd.als.dat
{'cnf.clauses': '118081',
 'cnf.totvars': '69608',
 'conflict literals': '99',
 'conflicts': '31',
 'decisions': '5712',
 'memused.mb': '16.41',
 'outcome': 'UNSAT',
 'propagations': '24679',
 'restarts': '1',
 'solver.msecs': 33,
 'task.msecs': 130}
