proyfinal/src/viki/013/experimentInOfficeAgust.take6.output/4c355787-b4a7-47c9-9e63-b66a0fa105fd.als.out
Reading from standard input... Use '--help' for help.
============================[ Problem Statistics ]=============================
|                                                                             |
|  Number of variables:         69608                                         |
|  Number of clauses:          118081                                         |
|  Parse time:                   0.03 s                                       |
|                                                                             |
============================[ Search Statistics ]==============================
| Conflicts |          ORIGINAL         |          LEARNT          | Progress |
|           |    Vars  Clauses Literals |    Limit  Clauses Lit/Cl |          |
===============================================================================
===============================================================================
restarts              : 1
conflicts             : 31             (932 /sec)
decisions             : 5712           (0.00 % random) (171671 /sec)
propagations          : 24679          (741712 /sec)
conflict literals     : 99             (0.00 % deleted)
Memory used           : 16.41 MB
CPU time              : 0.033273 s

UNSATISFIABLE
